nat_inputs/AUFLIA/20170829-Rodin/smt4696576625617609017.smt2
(set-info :smt-lib-version 2.6)
(set-logic ALL)
(declare-sort Nat$ 0)
(declare-fun to_int$ (Nat$) Int)
(set-info :source |Generator: Rodin SMT Plug-in|)
(set-info :license "https://creativecommons.org/licenses/by-nc/4.0/")
(set-info :category "industrial")
(set-info :status unknown)
(declare-sort A 0)
(declare-sort PA 0)
(declare-sort PZA 0)
(declare-fun MS (Int A PZA) Bool)
(declare-fun MS0 (A PA) Bool)
(declare-fun cnc (PZA PZA PZA) Bool)
(declare-fun dist (A A Int) Bool)
(declare-fun length (PZA Int) Bool)
(declare-fun path (A A PZA) Bool)
(declare-fun r (A A) Bool)
(declare-fun reverse (PZA PZA) Bool)
(declare-fun seq (PZA) Bool)
(declare-fun a () PA)
(declare-fun p () PZA)
(declare-fun x () A)
(declare-fun y () A)
(assert (forall ((x721 A)) (exists ((X PA)) (and (MS0 x721 X) (forall ((y4 A)) (=> (MS0 y4 X) (= y4 x721)))))))
(assert (forall ((x722 Int) (x723 A)) (exists ((X0 PZA)) (and (MS x722 x723 X0) (forall ((y5 Int) (y6 A)) (=> (MS y5 y6 X0) (and (= y5 x722) (= y6 x723))))))))
(assert (! (forall ((x0 PZA)) (= (seq x0) (exists ((s PZA)) (and (exists ((n Nat$)) (and (<= 0 (to_int$ n)) (forall ((x1 Int) (x2 A)) (=> (MS x1 x2 s) (and (<= 1 x1) (<= x1 (to_int$ n))))) (forall ((x3 Int) (x4 A) (x5 A)) (=> (and (MS x3 x4 s) (MS x3 x5 s)) (= x4 x5))) (forall ((x6 Int)) (=> (and (<= 1 x6) (<= x6 (to_int$ n))) (exists ((x7 A)) (MS x6 x7 s)))))) (forall ((x8 Int) (x9 A)) (= (MS x8 x9 x0) (MS x8 x9 s))))))) :named hyp1))
(assert (! (forall ((n0 Nat$) (s0 PZA)) (=> (and (<= 0 (to_int$ n0)) (forall ((x10 Int) (x11 A)) (=> (MS x10 x11 s0) (and (<= 1 x10) (<= x10 (to_int$ n0))))) (forall ((x12 Int) (x13 A) (x14 A)) (=> (and (MS x12 x13 s0) (MS x12 x14 s0)) (= x13 x14))) (forall ((x15 Int)) (=> (and (<= 1 x15) (<= x15 (to_int$ n0))) (exists ((x16 A)) (MS x15 x16 s0))))) (length s0 (to_int$ n0)))) :named hyp2))
(assert (! (forall ((x17 A) (x18 A)) (not (and (r x17 x18) (= x17 x18)))) :named hyp3))
(assert (! (and (forall ((x19 A) (x20 A) (x21 Nat$)) (=> (dist x19 x20 (to_int$ x21)) (and (MS0 x19 a) (MS0 x20 a) (<= 0 (to_int$ x21))))) (forall ((x22 A) (x23 A) (x24 Int) (x25 Int)) (=> (and (dist x22 x23 x24) (dist x22 x23 x25)) (= x24 x25))) (forall ((x26 A) (x27 A)) (=> (and (MS0 x26 a) (MS0 x27 a)) (exists ((x28 Int)) (dist x26 x27 x28))))) :named hyp4))
(assert (! (forall ((x29 A) (x30 A)) (=> (r x29 x30) (r x30 x29))) :named hyp5))
(assert (! (and (forall ((x31 PZA) (x32 Nat$)) (=> (length x31 (to_int$ x32)) (and (exists ((s1 PZA)) (and (exists ((n1 Nat$)) (and (<= 0 (to_int$ n1)) (forall ((x33 Int) (x34 A)) (=> (MS x33 x34 s1) (and (<= 1 x33) (<= x33 (to_int$ n1))))) (forall ((x35 Int) (x36 A) (x37 A)) (=> (and (MS x35 x36 s1) (MS x35 x37 s1)) (= x36 x37))) (forall ((x38 Int)) (=> (and (<= 1 x38) (<= x38 (to_int$ n1))) (exists ((x39 A)) (MS x38 x39 s1)))))) (forall ((x40 Int) (x41 A)) (= (MS x40 x41 x31) (MS x40 x41 s1))))) (<= 0 (to_int$ x32))))) (forall ((x42 PZA) (x43 Int) (x44 Int)) (=> (and (length x42 x43) (length x42 x44)) (= x43 x44))) (forall ((x45 PZA)) (=> (exists ((s2 PZA)) (and (exists ((n2 Nat$)) (and (<= 0 (to_int$ n2)) (forall ((x46 Int) (x47 A)) (=> (MS x46 x47 s2) (and (<= 1 x46) (<= x46 (to_int$ n2))))) (forall ((x48 Int) (x49 A) (x50 A)) (=> (and (MS x48 x49 s2) (MS x48 x50 s2)) (= x49 x50))) (forall ((x51 Int)) (=> (and (<= 1 x51) (<= x51 (to_int$ n2))) (exists ((x52 A)) (MS x51 x52 s2)))))) (forall ((x53 Int) (x54 A)) (= (MS x53 x54 x45) (MS x53 x54 s2))))) (exists ((x55 Int)) (length x45 x55))))) :named hyp6))
(assert (! (forall ((n3 Nat$) (s3 PZA)) (=> (and (<= 0 (to_int$ n3)) (forall ((x56 Int) (x57 A)) (=> (MS x56 x57 s3) (and (<= 1 x56) (<= x56 (to_int$ n3))))) (forall ((x58 Int) (x59 A) (x60 A)) (=> (and (MS x58 x59 s3) (MS x58 x60 s3)) (= x59 x60))) (forall ((x61 Int)) (=> (and (<= 1 x61) (<= x61 (to_int$ n3))) (exists ((x62 A)) (MS x61 x62 s3))))) (exists ((n4 Nat$)) (and (<= 0 (to_int$ n4)) (forall ((x63 Int) (x64 A)) (=> (MS x63 x64 s3) (and (<= 1 x63) (<= x63 (to_int$ n4))))) (forall ((x65 Int) (x66 A) (x67 A)) (=> (and (MS x65 x66 s3) (MS x65 x67 s3)) (= x66 x67))) (forall ((x68 Int)) (=> (and (<= 1 x68) (<= x68 (to_int$ n4))) (exists ((x69 A)) (MS x68 x69 s3)))))))) :named hyp7))
(assert (! (forall ((s4 PZA)) (=> (exists ((n5 Nat$)) (and (<= 0 (to_int$ n5)) (forall ((x70 Int) (x71 A)) (=> (MS x70 x71 s4) (and (<= 1 x70) (<= x70 (to_int$ n5))))) (forall ((x72 Int) (x73 A) (x74 A)) (=> (and (MS x72 x73 s4) (MS x72 x74 s4)) (= x73 x74))) (forall ((x75 Int)) (=> (and (<= 1 x75) (<= x75 (to_int$ n5))) (exists ((x76 A)) (MS x75 x76 s4)))))) (and (forall ((x77 Int) (x78 A)) (=> (MS x77 x78 s4) (and (<= 1 x77) (forall ((x79 Int)) (=> (length s4 x79) (<= x77 x79)))))) (forall ((x80 Int) (x81 A) (x82 A)) (=> (and (MS x80 x81 s4) (MS x80 x82 s4)) (= x81 x82))) (forall ((x83 Int)) (=> (and (<= 1 x83) (forall ((x84 Int)) (=> (length s4 x84) (<= x83 x84)))) (exists ((x85 A)) (MS x83 x85 s4))))))) :named hyp8))
(assert (! (forall ((x86 PZA) (x87 PZA) (x88 PZA)) (= (cnc x86 x87 x88) (exists ((s10 PZA) (s20 PZA)) (and (exists ((n6 Nat$)) (and (<= 0 (to_int$ n6)) (forall ((x89 Int) (x90 A)) (=> (MS x89 x90 s10) (and (<= 1 x89) (<= x89 (to_int$ n6))))) (forall ((x91 Int) (x92 A) (x93 A)) (=> (and (MS x91 x92 s10) (MS x91 x93 s10)) (= x92 x93))) (forall ((x94 Int)) (=> (and (<= 1 x94) (<= x94 (to_int$ n6))) (exists ((x95 A)) (MS x94 x95 s10)))))) (exists ((n7 Nat$)) (and (<= 0 (to_int$ n7)) (forall ((x96 Int) (x97 A)) (=> (MS x96 x97 s20) (and (<= 1 x96) (<= x96 (to_int$ n7))))) (forall ((x98 Int) (x99 A) (x100 A)) (=> (and (MS x98 x99 s20) (MS x98 x100 s20)) (= x99 x100))) (forall ((x101 Int)) (=> (and (<= 1 x101) (<= x101 (to_int$ n7))) (exists ((x102 A)) (MS x101 x102 s20)))))) (forall ((x103 Int) (x104 A)) (= (MS x103 x104 x86) (MS x103 x104 s10))) (forall ((x105 Int) (x106 A)) (= (MS x105 x106 x87) (MS x105 x106 s20))) (forall ((x107 Int) (x108 A)) (= (MS x107 x108 x88) (or (exists ((i Int)) (and (<= 1 i) (forall ((x109 Int)) (=> (length s10 x109) (<= i x109))) (= x107 i) (MS i x108 s10))) (exists ((i0 Int)) (and (forall ((x110 Int)) (=> (length s10 x110) (<= (+ x110 1) i0))) (forall ((x111 Int) (x112 Int)) (=> (and (length s10 x112) (length s20 x111)) (<= i0 (+ x112 x111)))) (= x107 i0) (exists ((x113 Int)) (and (forall ((x114 Int)) (=> (length s10 x114) (= x113 (- i0 x114)))) (MS x113 x108 s20)))))))))))) :named hyp9))
(assert (! (forall ((x115 PZA) (x116 PZA)) (= (reverse x115 x116) (exists ((s5 PZA)) (and (exists ((n8 Nat$)) (and (<= 0 (to_int$ n8)) (forall ((x117 Int) (x118 A)) (=> (MS x117 x118 s5) (and (<= 1 x117) (<= x117 (to_int$ n8))))) (forall ((x119 Int) (x120 A) (x121 A)) (=> (and (MS x119 x120 s5) (MS x119 x121 s5)) (= x120 x121))) (forall ((x122 Int)) (=> (and (<= 1 x122) (<= x122 (to_int$ n8))) (exists ((x123 A)) (MS x122 x123 s5)))))) (forall ((x124 Int) (x125 A)) (= (MS x124 x125 x115) (MS x124 x125 s5))) (forall ((x126 Int) (x127 A)) (= (MS x126 x127 x116) (exists ((i1 Int)) (and (<= 1 i1) (forall ((x128 Int)) (=> (length s5 x128) (<= i1 x128))) (= x126 i1) (exists ((x129 Int)) (and (forall ((x130 Int)) (=> (length s5 x130) (= x129 (+ (- x130 i1) 1)))) (MS x129 x127 s5))))))))))) :named hyp10))
(assert (! (forall ((x131 A) (x132 A) (x133 PZA)) (= (path x131 x132 x133) (exists ((x134 A) (y0 A) (p0 PZA)) (and (exists ((n9 Nat$)) (and (<= 0 (to_int$ n9)) (forall ((x135 Int) (x136 A)) (=> (MS x135 x136 p0) (and (<= 1 x135) (<= x135 (to_int$ n9))))) (forall ((x137 Int) (x138 A) (x139 A)) (=> (and (MS x137 x138 p0) (MS x137 x139 p0)) (= x138 x139))) (forall ((x140 Int)) (=> (and (<= 1 x140) (<= x140 (to_int$ n9))) (exists ((x141 A)) (MS x140 x141 p0)))))) (forall ((x142 A)) (=> (exists ((x143 Int)) (MS x143 x142 p0)) (MS0 x142 a))) (forall ((x144 Int)) (=> (length p0 x144) (< 1 x144))) (exists ((x145 Int)) (and (= x145 1) (MS x145 x134 p0))) (exists ((x146 Int)) (and (length p0 x146) (MS x146 y0 p0))) (forall ((i2 Int)) (=> (and (<= 1 i2) (forall ((x147 Int)) (=> (length p0 x147) (<= i2 (- x147 1))))) (exists ((x148 A) (x149 A)) (and (MS i2 x148 p0) (exists ((x150 Int)) (and (= x150 (+ i2 1)) (MS x150 x149 p0))) (r x148 x149))))) (= x131 x134) (= x132 y0) (forall ((x151 Int) (x152 A)) (= (MS x151 x152 x133) (MS x151 x152 p0))))))) :named hyp11))
(assert (! (and (forall ((x153 PZA) (x154 PZA) (x155 PZA)) (=> (exists ((s11 PZA) (s21 PZA)) (and (exists ((n10 Nat$)) (and (<= 0 (to_int$ n10)) (forall ((x156 Int) (x157 A)) (=> (MS x156 x157 s11) (and (<= 1 x156) (<= x156 (to_int$ n10))))) (forall ((x158 Int) (x159 A) (x160 A)) (=> (and (MS x158 x159 s11) (MS x158 x160 s11)) (= x159 x160))) (forall ((x161 Int)) (=> (and (<= 1 x161) (<= x161 (to_int$ n10))) (exists ((x162 A)) (MS x161 x162 s11)))))) (exists ((n11 Nat$)) (and (<= 0 (to_int$ n11)) (forall ((x163 Int) (x164 A)) (=> (MS x163 x164 s21) (and (<= 1 x163) (<= x163 (to_int$ n11))))) (forall ((x165 Int) (x166 A) (x167 A)) (=> (and (MS x165 x166 s21) (MS x165 x167 s21)) (= x166 x167))) (forall ((x168 Int)) (=> (and (<= 1 x168) (<= x168 (to_int$ n11))) (exists ((x169 A)) (MS x168 x169 s21)))))) (forall ((x170 Int) (x171 A)) (= (MS x170 x171 x153) (MS x170 x171 s11))) (forall ((x172 Int) (x173 A)) (= (MS x172 x173 x154) (MS x172 x173 s21))) (forall ((x174 Int) (x175 A)) (= (MS x174 x175 x155) (or (exists ((i3 Int)) (and (<= 1 i3) (forall ((x176 Int)) (=> (length s11 x176) (<= i3 x176))) (= x174 i3) (MS i3 x175 s11))) (exists ((i4 Int)) (and (forall ((x177 Int)) (=> (length s11 x177) (<= (+ x177 1) i4))) (forall ((x178 Int) (x179 Int)) (=> (and (length s11 x179) (length s21 x178)) (<= i4 (+ x179 x178)))) (= x174 i4) (exists ((x180 Int)) (and (forall ((x181 Int)) (=> (length s11 x181) (= x180 (- i4 x181)))) (MS x180 x175 s21)))))))))) (and (exists ((s6 PZA)) (and (exists ((n12 Nat$)) (and (<= 0 (to_int$ n12)) (forall ((x182 Int) (x183 A)) (=> (MS x182 x183 s6) (and (<= 1 x182) (<= x182 (to_int$ n12))))) (forall ((x184 Int) (x185 A) (x186 A)) (=> (and (MS x184 x185 s6) (MS x184 x186 s6)) (= x185 x186))) (forall ((x187 Int)) (=> (and (<= 1 x187) (<= x187 (to_int$ n12))) (exists ((x188 A)) (MS x187 x188 s6)))))) (forall ((x189 Int) (x190 A)) (= (MS x189 x190 x153) (MS x189 x190 s6))))) (exists ((s7 PZA)) (and (exists ((n13 Nat$)) (and (<= 0 (to_int$ n13)) (forall ((x191 Int) (x192 A)) (=> (MS x191 x192 s7) (and (<= 1 x191) (<= x191 (to_int$ n13))))) (forall ((x193 Int) (x194 A) (x195 A)) (=> (and (MS x193 x194 s7) (MS x193 x195 s7)) (= x194 x195))) (forall ((x196 Int)) (=> (and (<= 1 x196) (<= x196 (to_int$ n13))) (exists ((x197 A)) (MS x196 x197 s7)))))) (forall ((x198 Int) (x199 A)) (= (MS x198 x199 x154) (MS x198 x199 s7))))) (exists ((s8 PZA)) (and (exists ((n14 Nat$)) (and (<= 0 (to_int$ n14)) (forall ((x200 Int) (x201 A)) (=> (MS x200 x201 s8) (and (<= 1 x200) (<= x200 (to_int$ n14))))) (forall ((x202 Int) (x203 A) (x204 A)) (=> (and (MS x202 x203 s8) (MS x202 x204 s8)) (= x203 x204))) (forall ((x205 Int)) (=> (and (<= 1 x205) (<= x205 (to_int$ n14))) (exists ((x206 A)) (MS x205 x206 s8)))))) (forall ((x207 Int) (x208 A)) (= (MS x207 x208 x155) (MS x207 x208 s8)))))))) (forall ((x209 PZA) (x210 PZA) (x211 PZA) (x212 PZA)) (=> (and (exists ((s12 PZA) (s22 PZA)) (and (exists ((n15 Nat$)) (and (<= 0 (to_int$ n15)) (forall ((x213 Int) (x214 A)) (=> (MS x213 x214 s12) (and (<= 1 x213) (<= x213 (to_int$ n15))))) (forall ((x215 Int) (x216 A) (x217 A)) (=> (and (MS x215 x216 s12) (MS x215 x217 s12)) (= x216 x217))) (forall ((x218 Int)) (=> (and (<= 1 x218) (<= x218 (to_int$ n15))) (exists ((x219 A)) (MS x218 x219 s12)))))) (exists ((n16 Nat$)) (and (<= 0 (to_int$ n16)) (forall ((x220 Int) (x221 A)) (=> (MS x220 x221 s22) (and (<= 1 x220) (<= x220 (to_int$ n16))))) (forall ((x222 Int) (x223 A) (x224 A)) (=> (and (MS x222 x223 s22) (MS x222 x224 s22)) (= x223 x224))) (forall ((x225 Int)) (=> (and (<= 1 x225) (<= x225 (to_int$ n16))) (exists ((x226 A)) (MS x225 x226 s22)))))) (forall ((x227 Int) (x228 A)) (= (MS x227 x228 x209) (MS x227 x228 s12))) (forall ((x229 Int) (x230 A)) (= (MS x229 x230 x210) (MS x229 x230 s22))) (forall ((x231 Int) (x232 A)) (= (MS x231 x232 x211) (or (exists ((i5 Int)) (and (<= 1 i5) (forall ((x233 Int)) (=> (length s12 x233) (<= i5 x233))) (= x231 i5) (MS i5 x232 s12))) (exists ((i6 Int)) (and (forall ((x234 Int)) (=> (length s12 x234) (<= (+ x234 1) i6))) (forall ((x235 Int) (x236 Int)) (=> (and (length s12 x236) (length s22 x235)) (<= i6 (+ x236 x235)))) (= x231 i6) (exists ((x237 Int)) (and (forall ((x238 Int)) (=> (length s12 x238) (= x237 (- i6 x238)))) (MS x237 x232 s22)))))))))) (exists ((s13 PZA) (s23 PZA)) (and (exists ((n17 Nat$)) (and (<= 0 (to_int$ n17)) (forall ((x239 Int) (x240 A)) (=> (MS x239 x240 s13) (and (<= 1 x239) (<= x239 (to_int$ n17))))) (forall ((x241 Int) (x242 A) (x243 A)) (=> (and (MS x241 x242 s13) (MS x241 x243 s13)) (= x242 x243))) (forall ((x244 Int)) (=> (and (<= 1 x244) (<= x244 (to_int$ n17))) (exists ((x245 A)) (MS x244 x245 s13)))))) (exists ((n18 Nat$)) (and (<= 0 (to_int$ n18)) (forall ((x246 Int) (x247 A)) (=> (MS x246 x247 s23) (and (<= 1 x246) (<= x246 (to_int$ n18))))) (forall ((x248 Int) (x249 A) (x250 A)) (=> (and (MS x248 x249 s23) (MS x248 x250 s23)) (= x249 x250))) (forall ((x251 Int)) (=> (and (<= 1 x251) (<= x251 (to_int$ n18))) (exists ((x252 A)) (MS x251 x252 s23)))))) (forall ((x253 Int) (x254 A)) (= (MS x253 x254 x209) (MS x253 x254 s13))) (forall ((x255 Int) (x256 A)) (= (MS x255 x256 x210) (MS x255 x256 s23))) (forall ((x257 Int) (x258 A)) (= (MS x257 x258 x212) (or (exists ((i7 Int)) (and (<= 1 i7) (forall ((x259 Int)) (=> (length s13 x259) (<= i7 x259))) (= x257 i7) (MS i7 x258 s13))) (exists ((i8 Int)) (and (forall ((x260 Int)) (=> (length s13 x260) (<= (+ x260 1) i8))) (forall ((x261 Int) (x262 Int)) (=> (and (length s13 x262) (length s23 x261)) (<= i8 (+ x262 x261)))) (= x257 i8) (exists ((x263 Int)) (and (forall ((x264 Int)) (=> (length s13 x264) (= x263 (- i8 x264)))) (MS x263 x258 s23))))))))))) (forall ((x265 Int) (x266 A)) (= (MS x265 x266 x211) (MS x265 x266 x212))))) (forall ((x267 PZA) (x268 PZA)) (=> (and (exists ((s9 PZA)) (and (exists ((n19 Nat$)) (and (<= 0 (to_int$ n19)) (forall ((x269 Int) (x270 A)) (=> (MS x269 x270 s9) (and (<= 1 x269) (<= x269 (to_int$ n19))))) (forall ((x271 Int) (x272 A) (x273 A)) (=> (and (MS x271 x272 s9) (MS x271 x273 s9)) (= x272 x273))) (forall ((x274 Int)) (=> (and (<= 1 x274) (<= x274 (to_int$ n19))) (exists ((x275 A)) (MS x274 x275 s9)))))) (forall ((x276 Int) (x277 A)) (= (MS x276 x277 x267) (MS x276 x277 s9))))) (exists ((s14 PZA)) (and (exists ((n20 Nat$)) (and (<= 0 (to_int$ n20)) (forall ((x278 Int) (x279 A)) (=> (MS x278 x279 s14) (and (<= 1 x278) (<= x278 (to_int$ n20))))) (forall ((x280 Int) (x281 A) (x282 A)) (=> (and (MS x280 x281 s14) (MS x280 x282 s14)) (= x281 x282))) (forall ((x283 Int)) (=> (and (<= 1 x283) (<= x283 (to_int$ n20))) (exists ((x284 A)) (MS x283 x284 s14)))))) (forall ((x285 Int) (x286 A)) (= (MS x285 x286 x268) (MS x285 x286 s14)))))) (exists ((x287 PZA) (s15 PZA) (s24 PZA)) (and (exists ((n21 Nat$)) (and (<= 0 (to_int$ n21)) (forall ((x288 Int) (x289 A)) (=> (MS x288 x289 s15) (and (<= 1 x288) (<= x288 (to_int$ n21))))) (forall ((x290 Int) (x291 A) (x292 A)) (=> (and (MS x290 x291 s15) (MS x290 x292 s15)) (= x291 x292))) (forall ((x293 Int)) (=> (and (<= 1 x293) (<= x293 (to_int$ n21))) (exists ((x294 A)) (MS x293 x294 s15)))))) (exists ((n22 Nat$)) (and (<= 0 (to_int$ n22)) (forall ((x295 Int) (x296 A)) (=> (MS x295 x296 s24) (and (<= 1 x295) (<= x295 (to_int$ n22))))) (forall ((x297 Int) (x298 A) (x299 A)) (=> (and (MS x297 x298 s24) (MS x297 x299 s24)) (= x298 x299))) (forall ((x300 Int)) (=> (and (<= 1 x300) (<= x300 (to_int$ n22))) (exists ((x301 A)) (MS x300 x301 s24)))))) (forall ((x302 Int) (x303 A)) (= (MS x302 x303 x267) (MS x302 x303 s15))) (forall ((x304 Int) (x305 A)) (= (MS x304 x305 x268) (MS x304 x305 s24))) (forall ((x306 Int) (x307 A)) (= (MS x306 x307 x287) (or (exists ((i9 Int)) (and (<= 1 i9) (forall ((x308 Int)) (=> (length s15 x308) (<= i9 x308))) (= x306 i9) (MS i9 x307 s15))) (exists ((i10 Int)) (and (forall ((x309 Int)) (=> (length s15 x309) (<= (+ x309 1) i10))) (forall ((x310 Int) (x311 Int)) (=> (and (length s15 x311) (length s24 x310)) (<= i10 (+ x311 x310)))) (= x306 i10) (exists ((x312 Int)) (and (forall ((x313 Int)) (=> (length s15 x313) (= x312 (- i10 x313)))) (MS x312 x307 s24))))))))))))) :named hyp12))
(assert (! (forall ((s16 PZA) (s25 PZA)) (=> (and (exists ((n23 Nat$)) (and (<= 0 (to_int$ n23)) (forall ((x314 Int) (x315 A)) (=> (MS x314 x315 s16) (and (<= 1 x314) (<= x314 (to_int$ n23))))) (forall ((x316 Int) (x317 A) (x318 A)) (=> (and (MS x316 x317 s16) (MS x316 x318 s16)) (= x317 x318))) (forall ((x319 Int)) (=> (and (<= 1 x319) (<= x319 (to_int$ n23))) (exists ((x320 A)) (MS x319 x320 s16)))))) (exists ((n24 Nat$)) (and (<= 0 (to_int$ n24)) (forall ((x321 Int) (x322 A)) (=> (MS x321 x322 s25) (and (<= 1 x321) (<= x321 (to_int$ n24))))) (forall ((x323 Int) (x324 A) (x325 A)) (=> (and (MS x323 x324 s25) (MS x323 x325 s25)) (= x324 x325))) (forall ((x326 Int)) (=> (and (<= 1 x326) (<= x326 (to_int$ n24))) (exists ((x327 A)) (MS x326 x327 s25))))))) (exists ((x328 PZA) (x329 Int)) (and (forall ((x330 Int) (x331 A)) (= (MS x330 x331 x328) (or (exists ((i11 Int)) (and (<= 1 i11) (forall ((x332 Int)) (=> (length s16 x332) (<= i11 x332))) (= x330 i11) (MS i11 x331 s16))) (exists ((i12 Int)) (and (forall ((x333 Int)) (=> (length s16 x333) (<= (+ x333 1) i12))) (forall ((x334 Int) (x335 Int)) (=> (and (length s16 x335) (length s25 x334)) (<= i12 (+ x335 x334)))) (= x330 i12) (exists ((x336 Int)) (and (forall ((x337 Int)) (=> (length s16 x337) (= x336 (- i12 x337)))) (MS x336 x331 s25)))))))) (forall ((x338 Int) (x339 Int)) (=> (and (length s16 x339) (length s25 x338)) (= x329 (+ x339 x338)))) (length x328 x329))))) :named hyp13))
(assert (! (forall ((s17 PZA) (s26 PZA)) (=> (and (exists ((n25 Nat$)) (and (<= 0 (to_int$ n25)) (forall ((x340 Int) (x341 A)) (=> (MS x340 x341 s17) (and (<= 1 x340) (<= x340 (to_int$ n25))))) (forall ((x342 Int) (x343 A) (x344 A)) (=> (and (MS x342 x343 s17) (MS x342 x344 s17)) (= x343 x344))) (forall ((x345 Int)) (=> (and (<= 1 x345) (<= x345 (to_int$ n25))) (exists ((x346 A)) (MS x345 x346 s17)))))) (exists ((n26 Nat$)) (and (<= 0 (to_int$ n26)) (forall ((x347 Int) (x348 A)) (=> (MS x347 x348 s26) (and (<= 1 x347) (<= x347 (to_int$ n26))))) (forall ((x349 Int) (x350 A) (x351 A)) (=> (and (MS x349 x350 s26) (MS x349 x351 s26)) (= x350 x351))) (forall ((x352 Int)) (=> (and (<= 1 x352) (<= x352 (to_int$ n26))) (exists ((x353 A)) (MS x352 x353 s26))))))) (forall ((x354 Int)) (= (or (exists ((x355 A)) (exists ((i13 Int)) (and (<= 1 i13) (forall ((x356 Int)) (=> (length s17 x356) (<= i13 x356))) (= x354 i13) (MS i13 x355 s17)))) (exists ((x357 A)) (exists ((i14 Int)) (and (forall ((x358 Int)) (=> (length s17 x358) (<= (+ x358 1) i14))) (forall ((x359 Int) (x360 Int)) (=> (and (length s17 x360) (length s26 x359)) (<= i14 (+ x360 x359)))) (= x354 i14) (exists ((x361 Int)) (and (forall ((x362 Int)) (=> (length s17 x362) (= x361 (- i14 x362)))) (MS x361 x357 s26))))))) (and (<= 1 x354) (forall ((x363 Int) (x364 Int)) (=> (and (length s17 x364) (length s26 x363)) (<= x354 (+ x364 x363))))))))) :named hyp14))
(assert (! (forall ((s18 PZA) (s27 PZA)) (=> (and (exists ((n27 Nat$)) (and (<= 0 (to_int$ n27)) (forall ((x365 Int) (x366 A)) (=> (MS x365 x366 s18) (and (<= 1 x365) (<= x365 (to_int$ n27))))) (forall ((x367 Int) (x368 A) (x369 A)) (=> (and (MS x367 x368 s18) (MS x367 x369 s18)) (= x368 x369))) (forall ((x370 Int)) (=> (and (<= 1 x370) (<= x370 (to_int$ n27))) (exists ((x371 A)) (MS x370 x371 s18)))))) (exists ((n28 Nat$)) (and (<= 0 (to_int$ n28)) (forall ((x372 Int) (x373 A)) (=> (MS x372 x373 s27) (and (<= 1 x372) (<= x372 (to_int$ n28))))) (forall ((x374 Int) (x375 A) (x376 A)) (=> (and (MS x374 x375 s27) (MS x374 x376 s27)) (= x375 x376))) (forall ((x377 Int)) (=> (and (<= 1 x377) (<= x377 (to_int$ n28))) (exists ((x378 A)) (MS x377 x378 s27))))))) (forall ((x379 A)) (= (or (exists ((x380 Int)) (exists ((i15 Int)) (and (<= 1 i15) (forall ((x381 Int)) (=> (length s18 x381) (<= i15 x381))) (= x380 i15) (MS i15 x379 s18)))) (exists ((x382 Int)) (exists ((i16 Int)) (and (forall ((x383 Int)) (=> (length s18 x383) (<= (+ x383 1) i16))) (forall ((x384 Int) (x385 Int)) (=> (and (length s18 x385) (length s27 x384)) (<= i16 (+ x385 x384)))) (= x382 i16) (exists ((x386 Int)) (and (forall ((x387 Int)) (=> (length s18 x387) (= x386 (- i16 x387)))) (MS x386 x379 s27))))))) (or (exists ((x388 Int)) (MS x388 x379 s18)) (exists ((x389 Int)) (MS x389 x379 s27))))))) :named hyp15))
(assert (! (forall ((s19 PZA) (s28 PZA) (i17 Int)) (=> (and (exists ((n29 Nat$)) (and (<= 0 (to_int$ n29)) (forall ((x390 Int) (x391 A)) (=> (MS x390 x391 s19) (and (<= 1 x390) (<= x390 (to_int$ n29))))) (forall ((x392 Int) (x393 A) (x394 A)) (=> (and (MS x392 x393 s19) (MS x392 x394 s19)) (= x393 x394))) (forall ((x395 Int)) (=> (and (<= 1 x395) (<= x395 (to_int$ n29))) (exists ((x396 A)) (MS x395 x396 s19)))))) (exists ((n30 Nat$)) (and (<= 0 (to_int$ n30)) (forall ((x397 Int) (x398 A)) (=> (MS x397 x398 s28) (and (<= 1 x397) (<= x397 (to_int$ n30))))) (forall ((x399 Int) (x400 A) (x401 A)) (=> (and (MS x399 x400 s28) (MS x399 x401 s28)) (= x400 x401))) (forall ((x402 Int)) (=> (and (<= 1 x402) (<= x402 (to_int$ n30))) (exists ((x403 A)) (MS x402 x403 s28)))))) (<= 1 i17) (forall ((x404 Int)) (=> (length s19 x404) (<= i17 x404)))) (or (exists ((i18 Int)) (and (<= 1 i18) (forall ((x405 Int)) (=> (length s19 x405) (<= i18 x405))) (= i17 i18) (exists ((x406 A)) (and (MS i18 x406 s19) (MS i17 x406 s19))))) (exists ((i19 Int)) (and (forall ((x407 Int)) (=> (length s19 x407) (<= (+ x407 1) i19))) (forall ((x408 Int) (x409 Int)) (=> (and (length s19 x409) (length s28 x408)) (<= i19 (+ x409 x408)))) (= i17 i19) (exists ((x410 A)) (and (exists ((x411 Int)) (and (forall ((x412 Int)) (=> (length s19 x412) (= x411 (- i19 x412)))) (MS x411 x410 s28))) (MS i17 x410 s19)))))))) :named hyp16))
(assert (! (forall ((s110 PZA) (s29 PZA) (i20 Int)) (=> (and (exists ((n31 Nat$)) (and (<= 0 (to_int$ n31)) (forall ((x413 Int) (x414 A)) (=> (MS x413 x414 s110) (and (<= 1 x413) (<= x413 (to_int$ n31))))) (forall ((x415 Int) (x416 A) (x417 A)) (=> (and (MS x415 x416 s110) (MS x415 x417 s110)) (= x416 x417))) (forall ((x418 Int)) (=> (and (<= 1 x418) (<= x418 (to_int$ n31))) (exists ((x419 A)) (MS x418 x419 s110)))))) (exists ((n32 Nat$)) (and (<= 0 (to_int$ n32)) (forall ((x420 Int) (x421 A)) (=> (MS x420 x421 s29) (and (<= 1 x420) (<= x420 (to_int$ n32))))) (forall ((x422 Int) (x423 A) (x424 A)) (=> (and (MS x422 x423 s29) (MS x422 x424 s29)) (= x423 x424))) (forall ((x425 Int)) (=> (and (<= 1 x425) (<= x425 (to_int$ n32))) (exists ((x426 A)) (MS x425 x426 s29)))))) (forall ((x427 Int)) (=> (length s110 x427) (<= (+ x427 1) i20))) (forall ((x428 Int) (x429 Int)) (=> (and (length s110 x429) (length s29 x428)) (<= i20 (+ x429 x428))))) (or (exists ((i21 Int)) (and (<= 1 i21) (forall ((x430 Int)) (=> (length s110 x430) (<= i21 x430))) (= i20 i21) (exists ((x431 Int) (x432 A)) (and (forall ((x433 Int)) (=> (length s110 x433) (= x431 (- i20 x433)))) (MS i21 x432 s110) (MS x431 x432 s29))))) (exists ((i22 Int)) (and (forall ((x434 Int)) (=> (length s110 x434) (<= (+ x434 1) i22))) (forall ((x435 Int) (x436 Int)) (=> (and (length s110 x436) (length s29 x435)) (<= i22 (+ x436 x435)))) (= i20 i22) (exists ((x437 Int) (x438 A)) (and (forall ((x439 Int)) (=> (length s110 x439) (= x437 (- i20 x439)))) (exists ((x440 Int)) (and (forall ((x441 Int)) (=> (length s110 x441) (= x440 (- i22 x441)))) (MS x440 x438 s29))) (MS x437 x438 s29)))))))) :named hyp17))
(assert (! (forall ((s111 PZA) (s210 PZA) (b PA)) (=> (and (exists ((n33 Nat$)) (and (<= 0 (to_int$ n33)) (forall ((x442 Int) (x443 A)) (=> (MS x442 x443 s111) (and (<= 1 x442) (<= x442 (to_int$ n33))))) (forall ((x444 Int) (x445 A) (x446 A)) (=> (and (MS x444 x445 s111) (MS x444 x446 s111)) (= x445 x446))) (forall ((x447 Int)) (=> (and (<= 1 x447) (<= x447 (to_int$ n33))) (exists ((x448 A)) (MS x447 x448 s111)))))) (exists ((n34 Nat$)) (and (<= 0 (to_int$ n34)) (forall ((x449 Int) (x450 A)) (=> (MS x449 x450 s210) (and (<= 1 x449) (<= x449 (to_int$ n34))))) (forall ((x451 Int) (x452 A) (x453 A)) (=> (and (MS x451 x452 s210) (MS x451 x453 s210)) (= x452 x453))) (forall ((x454 Int)) (=> (and (<= 1 x454) (<= x454 (to_int$ n34))) (exists ((x455 A)) (MS x454 x455 s210)))))) (forall ((x456 A)) (=> (exists ((x457 Int)) (MS x457 x456 s111)) (MS0 x456 b))) (forall ((x458 A)) (=> (exists ((x459 Int)) (MS x459 x458 s210)) (MS0 x458 b)))) (and (forall ((x460 Int) (x461 A)) (=> (or (exists ((i23 Int)) (and (<= 1 i23) (forall ((x462 Int)) (=> (length s111 x462) (<= i23 x462))) (= x460 i23) (MS i23 x461 s111))) (exists ((i24 Int)) (and (forall ((x463 Int)) (=> (length s111 x463) (<= (+ x463 1) i24))) (forall ((x464 Int) (x465 Int)) (=> (and (length s111 x465) (length s210 x464)) (<= i24 (+ x465 x464)))) (= x460 i24) (exists ((x466 Int)) (and (forall ((x467 Int)) (=> (length s111 x467) (= x466 (- i24 x467)))) (MS x466 x461 s210)))))) (and (<= 1 x460) (forall ((x468 Int) (x469 Int)) (=> (and (length s111 x469) (length s210 x468)) (<= x460 (+ x469 x468)))) (MS0 x461 b)))) (forall ((x470 Int) (x471 A) (x472 A)) (=> (and (or (exists ((i25 Int)) (and (<= 1 i25) (forall ((x473 Int)) (=> (length s111 x473) (<= i25 x473))) (= x470 i25) (MS i25 x471 s111))) (exists ((i26 Int)) (and (forall ((x474 Int)) (=> (length s111 x474) (<= (+ x474 1) i26))) (forall ((x475 Int) (x476 Int)) (=> (and (length s111 x476) (length s210 x475)) (<= i26 (+ x476 x475)))) (= x470 i26) (exists ((x477 Int)) (and (forall ((x478 Int)) (=> (length s111 x478) (= x477 (- i26 x478)))) (MS x477 x471 s210)))))) (or (exists ((i27 Int)) (and (<= 1 i27) (forall ((x479 Int)) (=> (length s111 x479) (<= i27 x479))) (= x470 i27) (MS i27 x472 s111))) (exists ((i28 Int)) (and (forall ((x480 Int)) (=> (length s111 x480) (<= (+ x480 1) i28))) (forall ((x481 Int) (x482 Int)) (=> (and (length s111 x482) (length s210 x481)) (<= i28 (+ x482 x481)))) (= x470 i28) (exists ((x483 Int)) (and (forall ((x484 Int)) (=> (length s111 x484) (= x483 (- i28 x484)))) (MS x483 x472 s210))))))) (= x471 x472))) (forall ((x485 Int)) (=> (and (<= 1 x485) (forall ((x486 Int) (x487 Int)) (=> (and (length s111 x487) (length s210 x486)) (<= x485 (+ x487 x486))))) (or (exists ((x488 A)) (exists ((i29 Int)) (and (<= 1 i29) (forall ((x489 Int)) (=> (length s111 x489) (<= i29 x489))) (= x485 i29) (MS i29 x488 s111)))) (exists ((x490 A)) (exists ((i30 Int)) (and (forall ((x491 Int)) (=> (length s111 x491) (<= (+ x491 1) i30))) (forall ((x492 Int) (x493 Int)) (=> (and (length s111 x493) (length s210 x492)) (<= i30 (+ x493 x492)))) (= x485 i30) (exists ((x494 Int)) (and (forall ((x495 Int)) (=> (length s111 x495) (= x494 (- i30 x495)))) (MS x494 x490 s210)))))))))))) :named hyp18))
(assert (! (and (forall ((x496 PZA) (x497 PZA)) (=> (exists ((s30 PZA)) (and (exists ((n35 Nat$)) (and (<= 0 (to_int$ n35)) (forall ((x498 Int) (x499 A)) (=> (MS x498 x499 s30) (and (<= 1 x498) (<= x498 (to_int$ n35))))) (forall ((x500 Int) (x501 A) (x502 A)) (=> (and (MS x500 x501 s30) (MS x500 x502 s30)) (= x501 x502))) (forall ((x503 Int)) (=> (and (<= 1 x503) (<= x503 (to_int$ n35))) (exists ((x504 A)) (MS x503 x504 s30)))))) (forall ((x505 Int) (x506 A)) (= (MS x505 x506 x496) (MS x505 x506 s30))) (forall ((x507 Int) (x508 A)) (= (MS x507 x508 x497) (exists ((i31 Int)) (and (<= 1 i31) (forall ((x509 Int)) (=> (length s30 x509) (<= i31 x509))) (= x507 i31) (exists ((x510 Int)) (and (forall ((x511 Int)) (=> (length s30 x511) (= x510 (+ (- x511 i31) 1)))) (MS x510 x508 s30))))))))) (and (exists ((s31 PZA)) (and (exists ((n36 Nat$)) (and (<= 0 (to_int$ n36)) (forall ((x512 Int) (x513 A)) (=> (MS x512 x513 s31) (and (<= 1 x512) (<= x512 (to_int$ n36))))) (forall ((x514 Int) (x515 A) (x516 A)) (=> (and (MS x514 x515 s31) (MS x514 x516 s31)) (= x515 x516))) (forall ((x517 Int)) (=> (and (<= 1 x517) (<= x517 (to_int$ n36))) (exists ((x518 A)) (MS x517 x518 s31)))))) (forall ((x519 Int) (x520 A)) (= (MS x519 x520 x496) (MS x519 x520 s31))))) (exists ((s32 PZA)) (and (exists ((n37 Nat$)) (and (<= 0 (to_int$ n37)) (forall ((x521 Int) (x522 A)) (=> (MS x521 x522 s32) (and (<= 1 x521) (<= x521 (to_int$ n37))))) (forall ((x523 Int) (x524 A) (x525 A)) (=> (and (MS x523 x524 s32) (MS x523 x525 s32)) (= x524 x525))) (forall ((x526 Int)) (=> (and (<= 1 x526) (<= x526 (to_int$ n37))) (exists ((x527 A)) (MS x526 x527 s32)))))) (forall ((x528 Int) (x529 A)) (= (MS x528 x529 x497) (MS x528 x529 s32)))))))) (forall ((x530 PZA) (x531 PZA) (x532 PZA)) (=> (and (exists ((s33 PZA)) (and (exists ((n38 Nat$)) (and (<= 0 (to_int$ n38)) (forall ((x533 Int) (x534 A)) (=> (MS x533 x534 s33) (and (<= 1 x533) (<= x533 (to_int$ n38))))) (forall ((x535 Int) (x536 A) (x537 A)) (=> (and (MS x535 x536 s33) (MS x535 x537 s33)) (= x536 x537))) (forall ((x538 Int)) (=> (and (<= 1 x538) (<= x538 (to_int$ n38))) (exists ((x539 A)) (MS x538 x539 s33)))))) (forall ((x540 Int) (x541 A)) (= (MS x540 x541 x530) (MS x540 x541 s33))) (forall ((x542 Int) (x543 A)) (= (MS x542 x543 x531) (exists ((i32 Int)) (and (<= 1 i32) (forall ((x544 Int)) (=> (length s33 x544) (<= i32 x544))) (= x542 i32) (exists ((x545 Int)) (and (forall ((x546 Int)) (=> (length s33 x546) (= x545 (+ (- x546 i32) 1)))) (MS x545 x543 s33))))))))) (exists ((s34 PZA)) (and (exists ((n39 Nat$)) (and (<= 0 (to_int$ n39)) (forall ((x547 Int) (x548 A)) (=> (MS x547 x548 s34) (and (<= 1 x547) (<= x547 (to_int$ n39))))) (forall ((x549 Int) (x550 A) (x551 A)) (=> (and (MS x549 x550 s34) (MS x549 x551 s34)) (= x550 x551))) (forall ((x552 Int)) (=> (and (<= 1 x552) (<= x552 (to_int$ n39))) (exists ((x553 A)) (MS x552 x553 s34)))))) (forall ((x554 Int) (x555 A)) (= (MS x554 x555 x530) (MS x554 x555 s34))) (forall ((x556 Int) (x557 A)) (= (MS x556 x557 x532) (exists ((i33 Int)) (and (<= 1 i33) (forall ((x558 Int)) (=> (length s34 x558) (<= i33 x558))) (= x556 i33) (exists ((x559 Int)) (and (forall ((x560 Int)) (=> (length s34 x560) (= x559 (+ (- x560 i33) 1)))) (MS x559 x557 s34)))))))))) (forall ((x561 Int) (x562 A)) (= (MS x561 x562 x531) (MS x561 x562 x532))))) (forall ((x563 PZA)) (=> (exists ((s35 PZA)) (and (exists ((n40 Nat$)) (and (<= 0 (to_int$ n40)) (forall ((x564 Int) (x565 A)) (=> (MS x564 x565 s35) (and (<= 1 x564) (<= x564 (to_int$ n40))))) (forall ((x566 Int) (x567 A) (x568 A)) (=> (and (MS x566 x567 s35) (MS x566 x568 s35)) (= x567 x568))) (forall ((x569 Int)) (=> (and (<= 1 x569) (<= x569 (to_int$ n40))) (exists ((x570 A)) (MS x569 x570 s35)))))) (forall ((x571 Int) (x572 A)) (= (MS x571 x572 x563) (MS x571 x572 s35))))) (exists ((x573 PZA) (s36 PZA)) (and (exists ((n41 Nat$)) (and (<= 0 (to_int$ n41)) (forall ((x574 Int) (x575 A)) (=> (MS x574 x575 s36) (and (<= 1 x574) (<= x574 (to_int$ n41))))) (forall ((x576 Int) (x577 A) (x578 A)) (=> (and (MS x576 x577 s36) (MS x576 x578 s36)) (= x577 x578))) (forall ((x579 Int)) (=> (and (<= 1 x579) (<= x579 (to_int$ n41))) (exists ((x580 A)) (MS x579 x580 s36)))))) (forall ((x581 Int) (x582 A)) (= (MS x581 x582 x563) (MS x581 x582 s36))) (forall ((x583 Int) (x584 A)) (= (MS x583 x584 x573) (exists ((i34 Int)) (and (<= 1 i34) (forall ((x585 Int)) (=> (length s36 x585) (<= i34 x585))) (= x583 i34) (exists ((x586 Int)) (and (forall ((x587 Int)) (=> (length s36 x587) (= x586 (+ (- x587 i34) 1)))) (MS x586 x584 s36)))))))))))) :named hyp19))
(assert (! (forall ((s37 PZA)) (=> (exists ((n42 Nat$)) (and (<= 0 (to_int$ n42)) (forall ((x588 Int) (x589 A)) (=> (MS x588 x589 s37) (and (<= 1 x588) (<= x588 (to_int$ n42))))) (forall ((x590 Int) (x591 A) (x592 A)) (=> (and (MS x590 x591 s37) (MS x590 x592 s37)) (= x591 x592))) (forall ((x593 Int)) (=> (and (<= 1 x593) (<= x593 (to_int$ n42))) (exists ((x594 A)) (MS x593 x594 s37)))))) (exists ((x595 PZA) (x596 Int)) (and (forall ((x597 Int) (x598 A)) (= (MS x597 x598 x595) (exists ((i35 Int)) (and (<= 1 i35) (forall ((x599 Int)) (=> (length s37 x599) (<= i35 x599))) (= x597 i35) (exists ((x600 Int)) (and (forall ((x601 Int)) (=> (length s37 x601) (= x600 (+ (- x601 i35) 1)))) (MS x600 x598 s37))))))) (length s37 x596) (length x595 x596))))) :named hyp20))
(assert (! (forall ((s38 PZA)) (=> (exists ((n43 Nat$)) (and (<= 0 (to_int$ n43)) (forall ((x602 Int) (x603 A)) (=> (MS x602 x603 s38) (and (<= 1 x602) (<= x602 (to_int$ n43))))) (forall ((x604 Int) (x605 A) (x606 A)) (=> (and (MS x604 x605 s38) (MS x604 x606 s38)) (= x605 x606))) (forall ((x607 Int)) (=> (and (<= 1 x607) (<= x607 (to_int$ n43))) (exists ((x608 A)) (MS x607 x608 s38)))))) (forall ((x609 A)) (= (exists ((i36 Int)) (and (<= 1 i36) (forall ((x610 Int)) (=> (length s38 x610) (<= i36 x610))) (exists ((x611 Int)) (and (forall ((x612 Int)) (=> (length s38 x612) (= x611 (+ (- x612 i36) 1)))) (MS x611 x609 s38))))) (exists ((x613 Int)) (MS x613 x609 s38)))))) :named hyp21))
(assert (! (forall ((s39 PZA)) (=> (exists ((n44 Nat$)) (and (<= 0 (to_int$ n44)) (forall ((x614 Int) (x615 A)) (=> (MS x614 x615 s39) (and (<= 1 x614) (<= x614 (to_int$ n44))))) (forall ((x616 Int) (x617 A) (x618 A)) (=> (and (MS x616 x617 s39) (MS x616 x618 s39)) (= x617 x618))) (forall ((x619 Int)) (=> (and (<= 1 x619) (<= x619 (to_int$ n44))) (exists ((x620 A)) (MS x619 x620 s39)))))) (forall ((x621 Int) (x622 A)) (= (exists ((i37 Int)) (and (<= 1 i37) (forall ((x623 Int)) (=> (exists ((x624 PZA)) (and (forall ((x625 Int) (x626 A)) (= (MS x625 x626 x624) (exists ((i38 Int)) (and (<= 1 i38) (forall ((x627 Int)) (=> (length s39 x627) (<= i38 x627))) (= x625 i38) (exists ((x628 Int)) (and (forall ((x629 Int)) (=> (length s39 x629) (= x628 (+ (- x629 i38) 1)))) (MS x628 x626 s39))))))) (length x624 x623))) (<= i37 x623))) (= x621 i37) (exists ((x630 Int)) (and (forall ((x631 Int) (x632 Int)) (=> (and (length s39 x632) (exists ((x633 PZA)) (and (forall ((x634 Int) (x635 A)) (= (MS x634 x635 x633) (exists ((i39 Int)) (and (<= 1 i39) (forall ((x636 Int)) (=> (length s39 x636) (<= i39 x636))) (= x634 i39) (exists ((x637 Int)) (and (forall ((x638 Int)) (=> (length s39 x638) (= x637 (+ (- x638 i39) 1)))) (MS x637 x635 s39))))))) (length x633 x631)))) (= x630 (+ (- x632 (+ (- x631 i37) 1)) 1)))) (MS x630 x622 s39))))) (MS x621 x622 s39))))) :named hyp22))
(assert (! (forall ((x639 A) (y1 A)) (=> (and (MS0 x639 a) (MS0 y1 a)) (exists ((x640 Int)) (and (exists ((x641 PZA)) (and (exists ((x642 A) (x643 A)) (and (= x642 x639) (= x643 y1) (exists ((x644 A) (y2 A) (p1 PZA)) (and (exists ((n45 Nat$)) (and (<= 0 (to_int$ n45)) (forall ((x645 Int) (x646 A)) (=> (MS x645 x646 p1) (and (<= 1 x645) (<= x645 (to_int$ n45))))) (forall ((x647 Int) (x648 A) (x649 A)) (=> (and (MS x647 x648 p1) (MS x647 x649 p1)) (= x648 x649))) (forall ((x650 Int)) (=> (and (<= 1 x650) (<= x650 (to_int$ n45))) (exists ((x651 A)) (MS x650 x651 p1)))))) (forall ((x652 A)) (=> (exists ((x653 Int)) (MS x653 x652 p1)) (MS0 x652 a))) (forall ((x654 Int)) (=> (length p1 x654) (< 1 x654))) (exists ((x655 Int)) (and (= x655 1) (MS x655 x644 p1))) (exists ((x656 Int)) (and (length p1 x656) (MS x656 y2 p1))) (forall ((i40 Int)) (=> (and (<= 1 i40) (forall ((x657 Int)) (=> (length p1 x657) (<= i40 (- x657 1))))) (exists ((x658 A) (x659 A)) (and (MS i40 x658 p1) (exists ((x660 Int)) (and (= x660 (+ i40 1)) (MS x660 x659 p1))) (r x658 x659))))) (= x642 x644) (= x643 y2) (forall ((x661 Int) (x662 A)) (= (MS x661 x662 x641) (MS x661 x662 p1))))))) (length x641 x640))) (forall ((x663 Int)) (=> (exists ((x664 PZA)) (and (exists ((x665 A) (x666 A)) (and (= x665 x639) (= x666 y1) (exists ((x667 A) (y3 A) (p2 PZA)) (and (exists ((n46 Nat$)) (and (<= 0 (to_int$ n46)) (forall ((x668 Int) (x669 A)) (=> (MS x668 x669 p2) (and (<= 1 x668) (<= x668 (to_int$ n46))))) (forall ((x670 Int) (x671 A) (x672 A)) (=> (and (MS x670 x671 p2) (MS x670 x672 p2)) (= x671 x672))) (forall ((x673 Int)) (=> (and (<= 1 x673) (<= x673 (to_int$ n46))) (exists ((x674 A)) (MS x673 x674 p2)))))) (forall ((x675 A)) (=> (exists ((x676 Int)) (MS x676 x675 p2)) (MS0 x675 a))) (forall ((x677 Int)) (=> (length p2 x677) (< 1 x677))) (exists ((x678 Int)) (and (= x678 1) (MS x678 x667 p2))) (exists ((x679 Int)) (and (length p2 x679) (MS x679 y3 p2))) (forall ((i41 Int)) (=> (and (<= 1 i41) (forall ((x680 Int)) (=> (length p2 x680) (<= i41 (- x680 1))))) (exists ((x681 A) (x682 A)) (and (MS i41 x681 p2) (exists ((x683 Int)) (and (= x683 (+ i41 1)) (MS x683 x682 p2))) (r x681 x682))))) (= x665 x667) (= x666 y3) (forall ((x684 Int) (x685 A)) (= (MS x684 x685 x664) (MS x684 x685 p2))))))) (length x664 x663))) (<= x640 x663))) (dist x639 y1 x640))))) :named hyp23))
(assert (! (exists ((n47 Nat$)) (and (<= 0 (to_int$ n47)) (forall ((x686 Int) (x687 A)) (=> (MS x686 x687 p) (and (<= 1 x686) (<= x686 (to_int$ n47))))) (forall ((x688 Int) (x689 A) (x690 A)) (=> (and (MS x688 x689 p) (MS x688 x690 p)) (= x689 x690))) (forall ((x691 Int)) (=> (and (<= 1 x691) (<= x691 (to_int$ n47))) (exists ((x692 A)) (MS x691 x692 p)))))) :named hyp24))
(assert (! (forall ((x693 A)) (=> (exists ((x694 Int)) (MS x694 x693 p)) (MS0 x693 a))) :named hyp25))
(assert (! (forall ((x695 Int)) (=> (length p x695) (< 1 x695))) :named hyp26))
(assert (! (exists ((x696 Int)) (and (= x696 1) (MS x696 x p))) :named hyp27))
(assert (! (exists ((x697 Int)) (and (length p x697) (MS x697 y p))) :named hyp28))
(assert (! (forall ((i42 Int)) (=> (and (<= 1 i42) (forall ((x698 Int)) (=> (length p x698) (<= i42 (- x698 1))))) (exists ((x699 A) (x700 A)) (and (MS i42 x699 p) (exists ((x701 Int)) (and (= x701 (+ i42 1)) (MS x701 x700 p))) (r x699 x700))))) :named hyp29))
(assert (! (not (exists ((n48 Nat$)) (and (<= 0 (to_int$ n48)) (forall ((x702 Int) (x703 A)) (=> (exists ((i43 Int)) (and (<= 1 i43) (forall ((x704 Int)) (=> (length p x704) (<= i43 x704))) (= x702 i43) (exists ((x705 Int)) (and (forall ((x706 Int)) (=> (length p x706) (= x705 (+ (- x706 i43) 1)))) (MS x705 x703 p))))) (and (<= 1 x702) (<= x702 (to_int$ n48))))) (forall ((x707 Int) (x708 A) (x709 A)) (=> (and (exists ((i44 Int)) (and (<= 1 i44) (forall ((x710 Int)) (=> (length p x710) (<= i44 x710))) (= x707 i44) (exists ((x711 Int)) (and (forall ((x712 Int)) (=> (length p x712) (= x711 (+ (- x712 i44) 1)))) (MS x711 x708 p))))) (exists ((i45 Int)) (and (<= 1 i45) (forall ((x713 Int)) (=> (length p x713) (<= i45 x713))) (= x707 i45) (exists ((x714 Int)) (and (forall ((x715 Int)) (=> (length p x715) (= x714 (+ (- x715 i45) 1)))) (MS x714 x709 p)))))) (= x708 x709))) (forall ((x716 Int)) (=> (and (<= 1 x716) (<= x716 (to_int$ n48))) (exists ((x717 A) (i46 Int)) (and (<= 1 i46) (forall ((x718 Int)) (=> (length p x718) (<= i46 x718))) (= x716 i46) (exists ((x719 Int)) (and (forall ((x720 Int)) (=> (length p x720) (= x719 (+ (- x720 i46) 1)))) (MS x719 x717 p)))))))))) :named goal))
(check-sat)
(exit)
